1128 2208
2 1 4
119 1 -4
503 1 -4
699 1 4
131 2 -4
519 2 -4
870 2 4
135 3 -4
524 3 -4
525 3 4
546 3 4
62 4 4
487 4 -4
890 4 4
935 4 -4
6 5 4
11 5 4
14 5 -4
475 5 -4
271 6 4
460 6 -4
498 6 -4
505 7 4
523 7 -4
547 7 -4
573 7 4
9 8 -4
17 8 4
937 8 4
940 8 -4
25 9 4
603 9 4
673 9 -4
259 10 4
382 10 4
448 10 -4
476 10 -4
54 11 -4
382 11 -4
733 11 4
62 12 -4
383 12 -4
760 12 4
994 12 4
495 13 -4
585 13 -4
856 13 4
950 13 4
65 14 -4
688 14 4
1079 14 4
142 15 -4
499 15 4
620 15 4
655 15 -4
384 16 -4
487 16 -4
802 16 4
939 16 4
384 17 -4
805 17 4
894 17 -4
19 18 -4
77 18 -4
902 18 4
1005 18 4
92 19 4
93 19 4
767 19 -4
78 20 -4
382 20 -4
649 20 4
1014 20 4
153 21 -4
477 21 4
591 21 4
694 21 -4
23 22 4
186 22 4
198 22 -4
747 22 -4
145 23 4
395 23 -4
402 23 -4
25 24 4
383 24 -4
764 24 4
942 24 -4
1124 25 -4
1127 25 -4
94 26 -4
854 26 -4
953 26 4
1068 26 4
463 27 4
563 27 4
564 27 -4
739 27 -4
478 28 4
596 28 4
824 28 -4
969 28 -4
30 29 4
173 29 4
209 29 -4
702 29 -4
133 30 4
393 30 -4
399 30 -4
229 31 4
267 31 4
991 31 -4
1057 31 -4
33 32 4
384 32 -4
719 32 4
997 32 -4
1057 33 4
1058 33 -4
1061 33 -4
35 34 4
107 34 -4
809 34 -4
1008 34 4
45 35 -4
420 35 -4
1003 35 4
53 36 4
585 36 -4
727 36 -4
1008 36 4
38 37 4
450 37 4
593 37 -4
783 37 -4
313 38 4
538 38 -4
1024 38 -4
129 39 4
479 39 -4
500 39 4
624 39 -4
41 40 4
42 40 -4
158 40 4
218 40 -4
391 41 -4
397 41 -4
877 41 4
185 42 4
402 42 -4
749 42 4
44 43 4
91 43 -4
665 43 4
880 43 -4
103 44 -4
158 44 -4
159 44 4
165 45 4
850 45 -4
951 45 4
118 46 4
501 46 -4
517 46 4
658 46 -4
48 47 4
49 47 -4
146 47 4
922 47 -4
70 48 -4
395 48 -4
921 48 4
197 49 4
407 49 -4
792 49 4
51 50 4
105 50 -4
708 50 4
836 50 -4
113 51 -4
146 51 -4
982 51 4
115 52 4
386 52 4
394 52 -4
1071 52 -4
231 53 -4
386 53 -4
814 53 4
152 54 4
778 54 -4
908 54 4
111 55 4
518 55 -4
539 55 4
697 55 -4
569 56 -4
626 56 4
975 56 4
1102 56 -4
58 57 -4
134 57 4
878 57 -4
975 57 4
208 58 4
412 58 -4
834 58 4
60 59 4
571 59 -4
752 59 4
793 59 -4
120 60 -4
134 60 -4
1044 60 4
708 61 -4
752 61 4
796 61 4
841 61 -4
222 62 -4
508 62 4
415 63 4
769 63 -4
1001 63 -4
1005 63 4
106 64 4
387 64 4
392 64 -4
1007 64 -4
141 65 4
819 65 -4
863 65 4
67 66 4
284 66 4
389 66 -4
562 66 -4
140 67 4
141 67 -4
618 67 -4
539 68 -4
565 68 4
963 68 4
1025 68 -4
100 69 4
540 69 -4
565 69 4
743 69 -4
71 70 4
72 70 -4
87 70 4
170 71 -4
699 71 -4
790 71 4
286 72 4
481 72 -4
701 72 4
544 73 -4
750 73 -4
795 73 4
1108 73 4
665 74 -4
754 74 4
795 74 4
885 74 -4
419 75 4
809 75 -4
950 75 4
1064 75 -4
93 76 4
388 76 4
390 76 -4
952 76 -4
388 77 -4
584 77 4
904 77 4
127 78 4
817 78 4
865 78 -4
80 79 4
272 79 4
396 79 -4
1023 79 -4
127 80 -4
589 80 -4
1084 80 4
82 81 4
517 81 -4
594 81 4
1090 81 -4
272 82 -4
377 82 4
912 82 -4
566 83 -4
594 83 4
742 83 4
786 83 -4
206 84 4
503 84 -4
742 84 4
969 84 -4
155 85 -4
391 85 4
660 85 -4
832 85 4
296 86 4
391 86 -4
504 86 -4
662 86 4
391 87 -4
1040 87 4
1106 87 -4
89 88 4
522 88 -4
706 88 -4
839 88 4
113 89 4
400 89 -4
570 89 -4
91 90 -4
189 90 4
839 90 4
929 90 -4
265 91 4
630 91 4
423 92 4
426 92 -4
854 92 -4
901 93 -4
903 93 -4
203 94 4
390 94 -4
858 94 4
96 95 4
261 95 4
398 95 -4
1088 95 -4
561 96 -4
909 96 -4
1019 96 4
261 97 -4
370 97 4
450 97 4
868 97 -4
595 98 -4
622 98 4
785 98 4
827 98 -4
100 99 -4
195 99 4
659 99 -4
785 99 4
263 100 -4
828 100 4
143 101 -4
355 101 4
393 101 4
625 101 -4
307 102 4
314 102 4
393 102 -4
520 102 -4
157 103 4
482 103 4
978 103 -4
105 104 -4
175 104 4
883 104 4
986 104 -4
277 105 4
599 105 4
854 106 4
855 106 -4
857 106 -4
213 107 4
392 107 -4
812 107 4
349 108 4
389 108 4
462 108 -4
1018 108 -4
251 109 -4
366 109 4
463 109 4
823 109 -4
111 110 -4
183 110 4
225 110 -4
826 110 4
252 111 -4
870 111 4
130 112 -4
361 112 4
395 112 4
597 112 -4
145 113 4
921 113 -4
160 114 4
571 114 -4
926 114 4
1048 114 -4
809 115 4
810 115 -4
811 115 -4
223 116 4
394 116 -4
420 116 -4
772 116 4
118 117 -4
169 117 4
744 117 -4
869 117 4
243 118 -4
335 118 4
831 119 4
873 119 4
1102 119 -4
133 120 4
877 120 -4
1108 120 4
148 121 4
544 121 -4
983 121 4
1115 121 -4
123 122 4
758 122 -4
938 122 4
993 122 -4
323 123 4
576 123 -4
757 123 -4
769 124 4
770 124 -4
771 124 -4
1072 124 4
126 125 4
139 125 4
392 125 -4
475 125 -4
1072 126 4
1073 126 -4
1076 126 -4
250 127 -4
867 127 4
129 128 -4
154 128 4
788 128 -4
913 128 4
237 129 -4
327 129 4
131 130 4
132 130 -4
875 130 4
154 131 -4
307 131 4
183 132 -4
973 132 4
1033 132 4
833 133 -4
835 133 -4
792 134 4
793 134 -4
176 135 4
798 135 -4
928 135 4
137 136 4
713 136 -4
892 136 4
1058 136 -4
317 137 4
550 137 -4
712 137 -4
496 138 4
1008 138 4
1009 138 -4
1011 138 -4
319 139 4
496 139 -4
647 139 -4
241 140 4
820 140 -4
864 140 -4
241 141 -4
821 141 4
181 142 4
518 142 -4
695 142 4
144 143 -4
918 143 4
971 143 4
195 144 -4
328 144 4
1036 144 4
337 145 -4
791 145 -4
750 146 -4
834 146 4
148 147 -4
161 147 4
526 147 -4
985 147 4
599 148 -4
1049 148 4
150 149 4
671 149 -4
846 149 4
1124 149 -4
309 150 4
528 150 -4
669 150 -4
396 151 4
537 151 4
818 151 -4
866 151 -4
396 152 -4
537 152 -4
779 152 4
168 153 4
540 153 -4
656 153 4
440 154 -4
1034 154 4
156 155 -4
974 155 4
1034 155 4
206 156 -4
336 156 4
1101 156 4
346 157 -4
747 157 4
748 157 -4
217 158 4
706 158 -4
352 159 -4
521 159 4
924 159 -4
408 160 -4
630 160 -4
987 160 4
408 161 -4
467 161 4
485 161 -4
299 162 4
507 162 -4
633 162 -4
802 162 4
164 163 4
165 163 4
851 163 -4
1062 163 -4
447 164 -4
404 165 -4
899 165 -4
398 166 4
560 166 4
777 166 -4
910 166 -4
321 167 4
398 167 -4
560 167 -4
733 167 4
564 168 -4
825 168 4
1094 168 -4
451 169 -4
873 169 -4
1099 169 4
171 170 -4
1037 170 4
1099 170 4
344 171 4
345 171 4
659 171 -4
400 172 4
702 172 4
703 172 -4
705 172 -4
664 173 -4
880 173 -4
920 173 4
357 174 -4
880 174 4
881 174 -4
1112 174 4
413 175 -4
666 175 -4
930 175 4
413 176 -4
453 176 4
506 176 -4
288 177 4
486 177 -4
602 177 -4
760 177 4
404 178 4
437 178 -4
401 179 4
588 179 4
734 179 -4
961 179 -4
326 180 4
401 180 -4
588 180 -4
688 180 4
215 181 4
593 181 -4
1029 181 -4
215 182 -4
464 182 4
519 182 -4
657 182 4
184 183 4
464 183 -4
465 184 4
699 184 -4
915 184 -4
356 185 -4
1102 185 4
1104 185 -4
629 186 -4
836 186 -4
977 186 4
363 187 -4
836 187 4
837 187 -4
1045 187 4
287 188 4
416 188 4
547 188 -4
1046 188 -4
358 189 4
416 189 -4
709 189 -4
278 190 4
468 190 -4
576 190 -4
715 190 4
409 191 4
431 191 -4
406 192 4
617 192 4
689 192 -4
1020 192 -4
333 193 4
406 193 -4
617 193 -4
649 193 4
205 194 -4
480 194 4
502 194 -4
696 194 4
196 195 4
480 195 -4
481 196 4
660 196 -4
872 196 -4
362 197 -4
1037 197 4
1038 197 -4
793 198 -4
1039 198 4
1109 198 4
421 199 4
525 199 -4
599 199 4
984 199 -4
454 200 -4
550 200 -4
672 200 4
1123 200 4
235 201 4
430 201 -4
553 201 4
578 201 -4
414 202 4
425 202 -4
258 203 -4
318 203 4
810 203 -4
366 204 -4
590 204 4
1085 204 4
1086 204 -4
353 205 4
743 205 -4
966 205 4
207 206 4
502 206 -4
504 207 4
625 207 -4
829 207 -4
368 208 -4
974 208 4
976 208 -4
750 209 -4
1042 209 4
1105 209 4
424 210 4
505 210 -4
630 210 4
927 210 -4
230 211 4
436 211 -4
531 211 4
605 211 -4
418 212 4
422 212 -4
270 213 -4
310 213 4
770 213 -4
370 214 -4
619 214 4
1020 214 4
1021 214 -4
360 215 4
786 215 -4
520 216 4
597 216 -4
659 216 4
788 216 -4
569 217 -4
879 217 4
1104 217 -4
253 218 4
706 218 -4
980 218 4
428 219 4
484 219 -4
666 219 4
884 219 -4
221 220 4
222 220 4
429 220 -4
443 220 -4
468 221 -4
600 221 4
667 221 -4
507 222 -4
603 222 4
282 223 -4
301 223 4
724 223 -4
349 224 -4
377 224 -4
654 224 4
961 224 4
226 225 4
227 225 4
698 225 -4
371 226 -4
1096 226 4
1098 226 -4
541 227 4
567 227 -4
744 227 -4
434 228 4
466 228 -4
709 228 4
840 228 -4
454 229 4
486 229 -4
529 229 -4
456 230 -4
449 231 4
728 231 4
1013 231 -4
594 232 4
595 232 -4
596 232 -4
1031 232 4
378 233 -4
744 233 4
1031 233 4
1033 233 -4
239 234 -4
441 234 4
452 234 -4
753 234 4
471 235 -4
348 236 4
684 236 -4
772 236 -4
957 236 4
565 237 4
566 237 -4
968 237 4
328 238 -4
788 238 4
968 238 4
969 238 -4
363 239 4
795 239 4
796 239 -4
341 240 4
645 240 -4
726 240 -4
1012 240 4
516 241 4
687 241 -4
262 242 -4
360 242 4
539 242 4
784 242 -4
539 243 4
540 243 -4
913 243 4
322 244 4
572 244 -4
708 244 4
1042 244 -4
246 245 -4
247 245 4
455 245 -4
508 245 4
309 246 4
529 246 4
577 246 -4
469 247 -4
511 247 4
532 247 -4
332 248 4
614 248 -4
684 248 -4
1077 248 4
250 249 4
439 249 4
461 249 -4
537 249 -4
648 250 -4
1084 250 4
538 251 4
740 251 -4
781 251 4
517 252 4
518 252 -4
869 252 4
748 253 4
833 253 -4
878 253 -4
545 254 -4
665 254 4
707 254 4
980 254 -4
317 255 4
469 255 -4
551 255 4
604 255 -4
340 256 4
459 256 -4
258 257 4
583 257 -4
857 257 4
903 257 -4
681 258 4
949 258 -4
325 259 4
586 259 -4
645 259 -4
559 260 4
616 260 -4
909 260 -4
1019 260 4
262 261 -4
737 261 4
782 262 4
964 262 4
500 263 4
501 263 -4
826 263 4
351 264 -4
826 264 4
827 264 -4
915 264 4
522 265 -4
751 265 4
924 265 -4
278 266 4
489 266 4
509 266 -4
1123 266 -4
323 267 4
489 267 -4
635 267 -4
474 268 -4
1063 268 4
270 269 4
612 269 -4
811 269 4
954 269 -4
723 270 4
900 270 -4
320 271 4
558 271 -4
614 271 -4
273 272 -4
692 272 4
738 273 4
823 273 -4
1026 273 4
478 274 4
479 274 -4
742 274 -4
785 274 4
354 275 -4
785 275 4
786 275 -4
970 275 4
356 276 -4
626 276 4
1099 276 4
1100 276 -4
544 277 -4
794 277 4
881 277 -4
1056 278 -4
1058 278 -4
331 279 4
509 279 -4
603 279 4
675 279 -4
494 280 -4
1000 280 4
282 281 4
643 281 -4
771 281 4
1009 281 -4
768 282 4
853 282 -4
291 283 -4
312 283 4
475 283 4
586 283 -4
285 284 -4
653 284 4
963 284 -4
693 285 4
868 285 -4
1091 285 4
362 286 -4
1034 286 4
1035 286 -4
571 287 4
572 287 -4
928 287 -4
488 288 4
991 288 -4
993 288 -4
339 289 4
530 289 -4
634 289 4
717 289 -4
514 290 -4
946 290 4
292 291 4
771 291 -4
1075 291 4
725 292 -4
812 292 -4
1070 292 4
333 293 4
620 293 -4
867 293 -4
1023 293 4
295 294 4
654 294 4
912 294 -4
1023 294 -4
501 295 4
592 295 -4
595 295 -4
368 296 -4
971 296 4
972 296 -4
544 297 4
545 297 -4
985 297 -4
1114 297 4
988 298 4
1114 298 4
1115 298 -4
1118 298 -4
508 299 4
936 299 -4
938 299 -4
535 300 -4
896 300 4
558 301 4
683 301 -4
772 301 -4
303 302 4
646 302 4
687 302 -4
776 302 -4
1075 303 4
1076 303 -4
1079 303 -4
326 304 4
591 304 -4
821 304 -4
1088 304 4
306 305 4
619 305 4
965 305 -4
1088 305 -4
518 306 4
566 306 -4
1089 306 -4
373 307 -4
916 307 -4
1047 308 4
1048 308 -4
1050 308 4
1051 308 -4
891 309 -4
892 309 -4
586 310 4
644 310 -4
726 310 -4
312 311 4
615 311 4
732 311 -4
816 311 -4
1011 312 -4
1014 312 -4
321 313 4
563 313 -4
779 313 -4
315 314 4
542 314 -4
628 314 -4
701 315 -4
834 315 -4
920 315 4
985 316 4
986 316 -4
989 316 -4
1117 316 4
845 317 -4
846 317 -4
613 318 -4
614 318 4
684 318 -4
320 319 4
776 319 -4
862 319 -4
956 320 -4
1078 320 -4
735 321 -4
737 321 -4
346 322 4
879 322 -4
981 322 -4
801 323 -4
803 323 -4
583 324 4
640 324 4
641 324 -4
643 324 -4
647 325 4
905 325 -4
1013 325 -4
690 326 -4
692 326 -4
328 327 4
596 327 -4
1033 327 -4
972 328 -4
337 329 4
835 329 -4
1043 329 -4
1110 329 4
599 330 4
1110 330 4
1111 330 -4
1113 330 -4
758 331 4
759 331 -4
761 331 -4
686 332 4
859 332 -4
958 332 -4
651 333 -4
653 333 -4
623 334 4
1091 334 4
1092 334 -4
1095 334 -4
336 335 4
624 335 -4
1098 335 -4
914 336 -4
916 336 -4
792 337 4
794 337 -4
630 338 4
1043 338 4
1044 338 -4
1046 338 -4
713 339 4
714 339 -4
716 339 -4
641 340 4
1062 340 -4
1065 340 -4
731 341 4
813 341 -4
906 341 -4
376 342 4
653 342 -4
909 342 4
962 342 -4
657 343 4
1026 343 4
1027 343 -4
1030 343 -4
870 344 4
871 344 -4
874 344 -4
661 345 4
698 345 -4
700 345 -4
749 346 4
751 346 -4
666 347 4
981 347 4
982 347 -4
984 347 -4
773 348 -4
775 348 4
861 348 -4
379 349 4
692 349 -4
696 350 4
964 350 4
965 350 -4
967 350 -4
698 351 4
828 351 4
830 351 -4
709 352 4
925 352 4
927 352 -4
911 353 4
912 353 -4
1029 353 -4
745 354 4
787 354 4
789 354 -4
356 355 4
748 355 -4
876 355 -4
1101 356 4
753 357 4
882 357 4
884 357 -4
359 358 4
754 358 -4
887 358 -4
756 359 4
843 359 -4
987 359 -4
868 360 -4
1094 360 -4
362 361 4
791 361 -4
919 361 -4
1036 362 4
838 363 4
840 363 -4
365 364 4
805 364 -4
381 365 -4
1126 365 4
1127 365 -4
1087 366 4
1090 366 -4
368 367 4
831 367 4
833 367 -4
976 367 -4
973 368 4
848 369 -4
1128 369 4
1022 370 4
1025 370 -4
871 371 4
1094 371 4
1095 371 -4
373 372 4
875 372 4
876 372 -4
1038 372 -4
917 373 4
1103 373 -4
375 374 4
894 374 -4
995 375 4
996 375 -4
998 375 -4
1082 376 4
1083 376 -4
1086 376 -4
962 377 4
963 377 -4
914 378 4
1029 378 4
1030 378 -4
1017 379 4
1018 379 -4
1021 379 -4
991 380 4
1119 380 4
1120 380 -4
1122 380 -4
1128 381 4
497 382 -4
940 383 -4
992 383 4
1057 384 4
427 385 -4
727 385 -4
953 385 -4
1072 385 4
432 386 -4
902 386 -4
427 387 -4
438 387 -4
856 387 -4
432 388 -4
448 388 -4
411 389 -4
538 389 -4
438 390 -4
460 390 -4
448 392 -4
975 393 -4
460 394 -4
496 394 -4
542 395 -4
652 396 -4
568 397 -4
747 397 -4
831 397 4
691 398 -4
598 399 -4
702 399 -4
875 399 4
880 400 -4
1040 400 -4
538 401 -4
736 401 -4
627 402 -4
918 402 4
749 403 4
836 403 -4
1106 403 -4
1108 403 -4
405 404 -4
446 404 -4
409 405 -4
852 405 -4
1003 405 4
561 406 -4
780 406 -4
661 407 -4
747 407 -4
974 407 4
548 408 -4
1047 408 4
410 409 -4
458 409 -4
414 410 -4
807 410 -4
1066 410 4
462 411 -4
650 411 4
1085 411 -4
700 412 -4
702 412 -4
1037 412 4
574 413 -4
1114 413 4
415 414 -4
473 414 -4
418 415 -4
767 415 -4
526 416 -4
600 416 -4
444 417 -4
943 417 -4
419 418 -4
493 418 -4
422 419 -4
722 419 -4
769 420 -4
1072 420 4
548 421 -4
631 421 -4
754 421 -4
423 422 -4
513 422 -4
425 423 -4
680 423 -4
574 424 -4
667 424 -4
796 424 -4
426 425 -4
534 425 -4
431 426 -4
642 426 -4
774 427 4
957 427 -4
600 428 -4
710 428 -4
841 428 -4
486 429 -4
574 429 4
710 429 -4
491 430 -4
556 431 -4
1064 431 -4
729 432 4
1012 432 -4
503 433 -4
596 433 -4
829 433 -4
968 433 4
631 434 -4
755 434 -4
885 434 -4
454 435 -4
507 435 -4
548 435 4
755 435 -4
511 436 -4
581 437 -4
1001 437 -4
1064 437 -4
685 438 4
1077 438 -4
516 439 -4
730 439 -4
957 439 -4
624 440 -4
872 440 -4
1031 440 4
667 441 -4
797 441 -4
929 441 -4
468 442 -4
526 442 4
528 442 -4
797 442 -4
487 443 -4
528 443 -4
634 443 4
445 444 -4
510 444 4
636 444 -4
532 445 -4
459 446 -4
608 447 -4
947 447 -4
1001 447 -4
646 448 4
516 449 -4
559 449 -4
1012 449 -4
500 450 -4
622 450 4
658 451 -4
915 451 -4
1096 451 4
710 452 -4
842 452 -4
986 452 -4
486 453 -4
550 453 -4
842 453 -4
1052 454 -4
489 455 -4
491 455 4
554 455 -4
457 456 -4
490 456 4
676 456 -4
554 457 -4
474 458 -4
897 459 -4
947 459 -4
615 460 4
587 461 -4
860 461 4
1077 461 -4
516 462 -4
587 462 -4
478 463 -4
1093 463 4
697 464 -4
970 464 -4
626 465 -4
698 465 -4
1102 465 -4
755 466 -4
886 466 -4
1048 466 -4
507 467 -4
576 467 -4
886 467 -4
670 468 -4
470 469 -4
488 469 4
471 470 4
509 470 -4
579 470 -4
472 471 -4
718 471 -4
579 472 -4
494 473 -4
850 474 -4
897 474 -4
515 475 -4
559 476 -4
616 476 -4
814 476 4
479 477 -4
784 477 4
1028 477 4
1026 478 4
1091 479 4
743 480 -4
1032 480 -4
745 481 -4
1037 481 -4
483 482 -4
543 482 -4
705 482 -4
521 483 -4
571 483 -4
837 483 4
797 484 -4
931 484 -4
1115 484 -4
528 485 -4
602 485 -4
931 485 -4
488 487 4
530 488 -4
490 489 -4
530 490 -4
606 490 -4
492 491 -4
763 491 -4
606 492 -4
514 493 -4
806 494 -4
850 494 -4
611 495 -4
808 495 4
1070 495 -4
497 496 -4
536 497 -4
1075 497 4
587 498 -4
648 498 -4
774 498 4
501 499 -4
741 499 4
966 499 4
964 500 4
786 502 -4
1097 502 -4
971 503 4
789 504 -4
974 504 -4
842 505 -4
988 505 -4
550 506 -4
633 506 -4
988 506 -4
552 508 -4
510 509 -4
552 510 -4
637 510 -4
512 511 -4
1126 511 -4
637 512 -4
535 513 -4
766 514 -4
806 514 -4
616 515 -4
687 515 -4
729 515 4
911 517 4
659 519 -4
827 519 -4
830 520 -4
918 520 -4
523 521 -4
524 521 -4
524 522 -4
573 522 -4
572 523 -4
1047 523 4
1047 524 -4
886 525 -4
1050 525 -4
527 526 -4
576 527 -4
669 527 -4
1050 527 -4
937 529 -4
1122 529 -4
531 530 -4
577 531 -4
677 531 -4
533 532 -4
1060 532 -4
677 533 -4
557 534 -4
721 535 -4
766 535 -4
648 536 -4
685 536 4
732 536 -4
732 537 -4
822 540 -4
542 541 -4
874 541 -4
875 541 -4
917 542 4
545 543 -4
664 543 -4
883 543 4
546 545 -4
985 546 4
1112 546 4
931 547 -4
1117 547 -4
549 548 -4
602 549 -4
712 549 -4
1117 549 -4
670 551 -4
992 551 -4
1056 551 -4
553 552 -4
674 552 -4
604 553 -4
719 553 -4
555 554 -4
995 554 -4
719 555 -4
582 556 -4
679 557 -4
721 557 -4
849 557 -4
811 558 -4
1075 558 -4
560 559 -4
776 560 -4
563 561 -4
782 561 4
740 562 -4
780 562 -4
1089 562 4
1089 563 -4
566 564 -4
621 564 4
823 565 4
568 567 -4
831 567 -4
916 567 -4
662 568 -4
973 568 4
662 569 -4
704 569 -4
572 570 -4
629 570 -4
926 570 4
928 573 4
1045 573 4
575 574 -4
633 575 -4
757 575 -4
1118 575 4
578 577 -4
716 577 -4
635 578 -4
764 578 -4
580 579 -4
941 579 -4
764 580 -4
609 581 -4
640 582 -4
679 582 -4
895 582 -4
584 583 -4
1004 583 -4
585 584 -4
855 584 -4
645 585 -4
857 586 -4
588 587 -4
816 588 -4
591 589 -4
738 589 4
1085 589 -4
592 590 -4
736 590 4
1024 590 4
592 591 -4
593 592 4
595 593 -4
868 594 4
598 597 -4
972 597 -4
701 598 -4
1036 598 4
601 600 -4
669 601 -4
800 601 -4
1051 601 4
758 602 -4
936 603 -4
605 604 -4
761 604 -4
675 605 -4
805 605 -4
607 606 -4
996 606 -4
805 607 -4
639 608 -4
610 609 -4
640 609 -4
945 609 -4
611 610 -4
639 610 -4
680 610 -4
612 611 -4
851 611 -4
613 612 -4
1067 612 -4
856 613 4
901 613 -4
903 614 -4
686 615 -4
1076 615 4
617 616 -4
862 617 -4
620 618 -4
693 618 4
1020 618 -4
621 619 -4
691 619 4
621 620 -4
1091 621 -4
623 622 4
912 622 4
624 623 -4
1096 623 4
627 625 -4
1035 625 -4
746 626 4
746 627 -4
1101 627 4
746 628 -4
792 628 -4
977 628 4
878 629 -4
1043 629 4
632 631 -4
1052 631 -4
712 632 -4
844 632 -4
989 632 4
713 633 -4
891 634 -4
1057 634 4
636 635 -4
803 635 -4
717 636 -4
848 636 -4
638 637 -4
1061 637 -4
848 638 -4
641 639 -4
999 639 -4
722 640 -4
642 641 -4
643 642 4
769 642 -4
644 643 -4
902 644 4
951 644 -4
954 645 -4
731 646 -4
1011 646 4
816 647 -4
907 647 -4
650 648 -4
651 649 -4
1081 649 4
651 650 -4
907 650 -4
1085 651 -4
654 652 4
655 652 -4
961 652 -4
655 653 -4
656 654 -4
656 655 -4
1026 656 -4
658 657 -4
1093 657 4
870 658 -4
661 660 -4
1100 660 -4
790 661 -4
663 662 -4
749 663 -4
790 663 -4
1039 663 4
922 664 -4
981 664 4
666 665 4
668 667 -4
757 668 -4
889 668 -4
932 668 4
671 669 -4
673 670 -4
1055 670 -4
673 671 -4
889 671 -4
674 672 4
845 672 -4
992 672 4
674 673 -4
762 674 -4
676 675 -4
846 675 -4
762 676 -4
894 676 -4
678 677 -4
1127 677 -4
894 678 -4
681 679 4
767 679 -4
682 680 4
809 680 -4
682 681 -4
1065 681 4
683 682 -4
1070 682 -4
953 683 4
1006 683 -4
1009 684 -4
775 685 -4
956 685 4
862 686 -4
959 686 -4
689 687 -4
690 688 -4
1016 688 4
690 689 -4
959 689 -4
1020 690 -4
694 691 -4
910 691 -4
694 692 -4
695 693 -4
962 693 4
695 694 -4
964 695 -4
697 696 -4
1028 696 4
828 697 -4
700 699 -4
832 700 -4
703 701 -4
832 703 -4
1105 703 4
705 704 -4
791 704 4
922 704 -4
707 705 -4
925 706 4
923 707 -4
925 707 -4
709 708 4
711 710 -4
800 711 -4
887 711 4
934 711 -4
714 712 -4
844 713 -4
802 714 -4
934 714 -4
716 715 4
801 715 -4
937 715 4
804 716 -4
718 717 -4
892 717 -4
804 718 -4
942 718 -4
720 719 -4
942 720 -4
723 721 4
807 721 -4
724 722 4
854 722 -4
724 723 -4
1002 723 4
725 724 -4
1008 725 4
1069 725 -4
728 726 -4
1073 726 -4
730 727 -4
860 727 4
730 728 -4
812 728 -4
815 729 -4
905 729 4
815 730 -4
907 731 -4
1015 731 -4
734 732 -4
735 733 -4
960 733 4
735 734 -4
1015 734 -4
961 735 -4
739 736 -4
866 736 -4
739 737 -4
1021 737 -4
741 738 -4
1022 738 4
741 739 -4
822 740 -4
911 740 4
911 741 -4
787 742 4
787 743 -4
745 744 -4
1101 745 -4
748 746 -4
882 750 4
882 751 -4
979 751 -4
753 752 4
1110 752 4
754 753 -4
756 755 -4
844 756 -4
990 756 -4
759 757 -4
800 758 -4
760 759 -4
990 759 -4
761 760 4
847 761 -4
763 762 -4
938 762 -4
847 763 -4
997 763 -4
765 764 -4
997 765 -4
768 766 4
852 766 -4
770 767 4
770 768 -4
948 768 4
858 771 -4
773 772 -4
858 773 -4
860 773 4
859 774 4
861 774 -4
959 775 -4
1080 775 -4
777 776 -4
778 777 -4
1080 777 -4
779 778 -4
910 778 -4
781 779 -4
783 780 -4
820 780 -4
783 781 -4
1086 781 -4
784 782 -4
1087 782 4
784 783 -4
1032 787 4
789 788 -4
1036 789 -4
791 790 -4
838 793 4
838 794 -4
1041 794 -4
1043 795 4
930 796 -4
799 797 -4
799 798 -4
930 798 -4
1052 798 -4
889 799 -4
1054 799 -4
801 800 -4
1054 801 -4
803 802 4
893 803 -4
993 804 -4
1126 804 -4
808 806 4
899 806 -4
810 807 4
950 807 -4
810 808 -4
898 808 4
904 811 -4
813 812 -4
814 813 4
904 813 -4
906 814 -4
817 815 -4
1015 815 -4
818 816 -4
818 817 -4
906 817 -4
819 818 -4
821 819 -4
866 819 -4
865 820 -4
1087 820 4
1087 821 -4
824 822 -4
1024 822 -4
824 823 -4
825 824 -4
827 825 -4
1096 825 -4
1095 826 -4
1097 828 4
830 829 -4
914 829 4
973 830 -4
833 832 -4
835 834 4
837 835 -4
1107 837 -4
983 838 4
840 839 4
981 839 4
841 840 -4
987 841 -4
843 842 -4
934 843 -4
1121 843 -4
845 844 -4
1121 845 -4
939 846 -4
1058 847 -4
1060 847 -4
940 848 4
896 849 -4
853 850 4
853 851 -4
896 851 -4
855 852 4
1005 852 -4
855 853 -4
955 856 4
955 857 -4
859 858 -4
955 859 -4
958 860 -4
863 861 -4
1080 861 -4
864 862 -4
864 863 -4
958 863 -4
865 864 -4
867 865 -4
1022 866 4
1022 867 -4
871 869 4
1030 869 -4
872 871 4
874 872 -4
917 873 4
1098 873 4
917 874 -4
877 876 -4
1105 876 -4
879 877 -4
881 878 4
881 879 -4
926 882 4
884 883 4
925 883 4
885 884 -4
1049 885 -4
888 886 -4
888 887 -4
1049 887 -4
890 888 -4
990 888 -4
891 889 -4
891 890 -4
1053 890 -4
994 892 -4
995 893 -4
1124 893 -4
1126 893 -4
946 895 -4
898 896 -4
900 897 4
1003 897 -4
900 898 -4
946 898 -4
901 899 4
1068 899 -4
901 900 -4
1010 902 4
1010 903 -4
905 904 -4
1010 905 -4
908 906 -4
1082 907 -4
1013 908 -4
1082 908 -4
1083 909 -4
962 910 4
914 913 4
967 913 -4
916 915 -4
1103 918 4
921 919 -4
1039 919 -4
1103 919 -4
923 920 4
1038 920 -4
923 921 -4
924 922 4
924 923 -4
927 926 4
929 927 -4
1116 928 4
1116 929 -4
932 930 -4
933 931 -4
933 932 -4
1116 932 -4
935 933 -4
1054 933 -4
936 934 -4
936 935 -4
1120 935 -4
1059 937 4
1059 938 -4
941 939 -4
1060 939 -4
943 940 -4
943 941 -4
1059 941 -4
944 942 -4
944 943 -4
1000 945 -4
948 946 -4
949 947 4
1066 947 -4
949 948 -4
1000 948 -4
951 949 -4
952 950 4
952 951 -4
954 952 -4
1074 953 4
1074 954 -4
956 955 -4
1074 956 -4
1078 957 -4
960 958 -4
1017 959 -4
1017 960 -4
1078 960 -4
965 963 -4
1093 965 4
967 966 -4
1092 966 4
969 967 -4
1029 968 -4
972 970 -4
1099 970 -4
1097 971 -4
978 975 4
977 976 -4
978 976 -4
979 977 4
979 978 -4
980 979 -4
982 980 -4
1112 982 -4
984 983 4
1111 983 -4
986 984 -4
989 987 -4
1119 988 -4
1119 989 -4
991 990 -4
1125 992 4
1125 993 -4
995 994 -4
996 994 -4
1125 996 -4
998 997 -4
1063 999 -4
1002 1000 -4
1004 1001 4
1004 1002 -4
1063 1002 -4
1006 1003 4
1006 1004 -4
1007 1005 4
1007 1006 -4
1009 1007 -4
1011 1010 -4
1014 1012 -4
1016 1013 -4
1016 1014 -4
1018 1015 -4
1018 1016 -4
1019 1017 -4
1021 1019 4
1025 1023 -4
1027 1024 -4
1027 1025 -4
1028 1027 4
1030 1028 -4
1094 1031 -4
1034 1032 -4
1035 1032 -4
1035 1033 -4
1040 1038 -4
1041 1039 4
1041 1040 -4
1042 1041 -4
1044 1042 -4
1045 1044 -4
1046 1045 4
1048 1046 -4
1051 1049 -4
1053 1050 -4
1053 1051 -4
1055 1052 -4
1055 1053 -4
1056 1054 -4
1056 1055 -4
1061 1059 -4
1128 1060 4
1128 1061 -4
1065 1063 -4
1067 1064 4
1067 1065 -4
1068 1066 4
1069 1066 4
1069 1067 -4
1071 1068 4
1071 1069 -4
1073 1070 -4
1073 1071 -4
1076 1074 -4
1079 1077 -4
1081 1078 -4
1081 1079 -4
1083 1080 -4
1083 1081 -4
1084 1082 -4
1086 1084 4
1090 1088 -4
1092 1089 -4
1092 1090 -4
1095 1093 -4
1100 1097 -4
1100 1098 -4
1104 1103 -4
1106 1104 -4
1107 1105 4
1107 1106 -4
1109 1107 -4
1111 1108 4
1110 1109 -4
1111 1109 -4
1113 1112 4
1114 1113 -4
1115 1113 -4
1118 1116 -4
1120 1117 -4
1120 1118 -4
1121 1119 -4
1122 1121 -4
1123 1122 -4
1124 1123 -4
1127 1125 -4
747
382 2
383 2
384 2
385 2
386 2
387 2
388 2
389 2
390 4
391 2
392 4
393 2
394 4
395 2
396 2
397 2
398 2
399 2
400 2
401 2
402 2
403 2
404 2
405 2
406 2
407 2
408 2
409 2
410 2
411 2
412 2
413 2
414 2
415 2
416 2
417 2
418 2
419 2
420 2
421 2
422 4
423 2
424 2
425 4
426 4
427 2
428 2
429 2
430 2
431 4
432 2
433 2
434 2
435 2
436 2
437 4
438 2
439 2
440 2
441 2
442 2
443 2
444 2
445 2
446 2
447 4
448 2
449 2
450 -2
451 2
452 4
453 2
454 2
455 2
456 2
457 2
458 2
459 4
460 2
461 2
462 4
463 -2
464 2
465 2
466 4
467 2
468 4
469 2
470 2
471 2
472 2
473 2
474 4
475 2
476 2
477 -2
478 -2
479 2
480 2
481 2
482 2
483 2
484 4
485 4
486 4
487 2
488 -2
489 2
490 2
491 2
492 2
493 2
494 4
495 2
496 2
497 2
498 2
499 -2
500 -2
501 2
502 4
503 2
504 2
505 2
506 4
507 4
508 -2
509 4
510 2
511 2
512 2
513 2
514 4
515 2
516 2
517 -2
518 2
519 4
520 2
521 2
522 4
523 2
524 4
525 2
526 2
527 4
528 4
529 2
530 4
531 2
532 4
533 2
534 2
535 4
536 2
537 2
538 2
539 -2
540 4
541 2
542 2
543 2
544 2
545 4
546 -2
547 4
548 2
549 4
550 4
551 2
552 4
553 2
554 4
555 2
556 2
557 4
558 2
559 2
560 2
561 2
562 2
563 2
564 2
565 -4
566 4
567 4
568 2
569 4
570 2
571 2
572 4
573 -2
574 2
575 2
576 4
577 4
578 4
579 4
580 2
581 2
582 4
583 2
584 2
585 4
586 2
587 4
588 2
589 2
590 -2
591 2
592 2
593 2
594 -4
595 4
596 2
597 4
598 2
599 -2
600 2
601 2
602 4
603 -2
604 4
605 4
606 4
607 2
608 2
609 4
610 4
611 4
612 4
613 2
614 2
615 -2
616 4
617 2
618 2
619 -2
620 2
621 2
622 -4
623 -2
624 4
625 4
626 -2
627 2
628 2
629 2
630 -2
631 4
632 2
633 4
634 -2
635 4
636 4
637 4
638 2
639 4
640 2
641 2
642 2
643 2
644 2
645 4
646 -2
647 2
648 4
649 -2
650 2
651 4
652 2
653 2
654 -2
655 4
656 2
657 -2
658 4
659 2
660 4
661 2
662 2
663 2
664 2
665 -2
666 -2
667 4
668 2
669 4
670 4
671 4
672 -2
673 4
674 2
675 4
676 4
677 4
678 2
679 2
680 2
681 -2
682 2
683 2
684 4
685 -2
686 2
687 4
688 -2
689 4
690 4
691 2
692 2
693 -2
694 4
695 2
696 -2
697 4
698 2
699 2
700 4
701 2
702 2
703 2
704 2
705 4
706 2
707 2
708 -2
709 -2
710 4
711 2
712 4
713 2
714 4
715 -2
716 2
717 4
718 4
719 2
720 2
721 2
722 2
723 -2
724 2
725 2
726 4
727 2
728 2
729 -2
730 4
731 2
732 4
733 -2
734 4
735 4
736 2
737 2
738 -2
739 4
740 2
741 2
742 -2
743 4
744 2
745 2
746 2
747 2
748 2
749 -2
750 2
751 2
752 -4
753 -2
754 2
755 4
756 2
757 4
758 2
759 4
760 -2
761 2
762 4
763 4
764 2
765 2
766 2
767 2
768 -2
769 2
770 2
771 2
772 2
773 2
774 -2
775 2
776 4
777 4
778 4
779 2
780 4
781 2
782 -2
783 4
784 2
785 -4
786 4
787 -2
788 2
789 4
790 2
791 2
792 -2
793 2
794 2
795 -4
796 2
797 4
798 4
799 4
800 4
801 4
802 -2
803 2
804 4
805 2
806 2
807 2
808 -2
809 2
810 2
811 2
812 2
813 2
814 -2
815 4
816 4
817 2
818 4
819 4
820 2
821 2
822 4
823 2
824 4
825 2
826 -2
827 4
828 -2
829 2
830 4
831 -2
832 2
833 4
834 -2
835 2
836 2
837 2
838 -2
839 -4
840 2
841 4
842 4
843 4
844 4
845 4
846 2
847 4
848 2
849 2
850 2
851 4
852 2
853 2
854 2
855 2
856 -2
857 2
858 2
859 2
860 -2
861 4
862 4
863 2
864 4
865 4
866 2
867 2
868 2
869 -2
870 -2
871 -2
872 2
873 -2
874 4
875 -2
876 4
877 2
878 2
879 2
880 2
881 2
882 -2
883 -4
884 2
885 4
886 4
887 2
888 4
889 4
890 2
891 4
892 2
893 4
894 4
895 2
896 2
897 2
898 2
899 2
900 2
901 2
902 -2
903 4
904 2
905 2
906 4
907 4
908 2
909 2
910 2
911 -2
912 2
913 -2
914 -2
915 2
916 4
917 -2
918 -2
919 4
920 -2
921 2
922 2
923 2
924 2
925 -2
926 -4
927 2
928 -2
929 4
930 2
931 4
932 2
933 4
934 4
935 4
936 4
937 -2
938 2
939 2
940 2
941 4
942 4
943 4
944 2
945 2
946 2
947 2
948 2
949 2
950 -2
951 2
952 2
953 -2
954 4
955 2
956 2
957 2
958 4
959 4
960 2
961 2
962 -2
963 2
964 -2
965 2
966 -2
967 4
968 -2
969 4
970 2
971 -2
972 4
973 -2
974 -2
975 -2
976 4
977 -2
978 2
979 2
980 2
981 -2
982 2
983 -2
984 2
985 -2
986 4
987 2
988 2
989 2
990 4
991 2
992 -2
993 4
994 2
995 2
996 4
997 4
998 2
999 2
1000 2
1001 2
1002 2
1003 -2
1004 2
1005 -2
1006 2
1007 2
1008 -4
1009 4
1010 2
1011 2
1012 2
1013 4
1014 2
1015 4
1016 2
1017 2
1018 4
1019 -2
1020 2
1021 2
1022 -2
1023 2
1024 2
1025 4
1026 -2
1027 2
1028 -2
1029 2
1030 4
1031 -2
1032 2
1033 2
1034 -2
1035 4
1036 -2
1037 -2
1038 4
1039 -2
1040 2
1041 2
1042 2
1043 -2
1044 2
1045 -2
1046 2
1047 -2
1048 4
1049 2
1050 2
1051 2
1052 4
1053 4
1054 4
1055 4
1056 4
1057 -2
1058 4
1059 2
1060 2
1061 4
1062 2
1063 2
1064 2
1065 2
1066 -2
1067 2
1068 -2
1069 2
1070 2
1071 2
1072 -4
1073 4
1074 2
1075 -2
1076 2
1077 2
1078 4
1079 2
1080 4
1081 2
1082 2
1083 4
1084 -2
1085 2
1086 2
1087 -2
1088 2
1089 2
1090 4
1091 -2
1092 2
1093 -2
1094 2
1095 4
1096 -2
1097 2
1098 2
1099 -2
1100 4
1101 -2
1102 2
1103 2
1104 4
1105 -2
1106 4
1107 2
1108 -2
1109 2
1110 -2
1111 2
1112 -2
1113 2
1114 -2
1115 4
1116 2
1117 2
1118 2
1119 2
1120 4
1121 4
1122 4
1123 2
1124 4
1125 2
1126 2
1127 4
1128 -2
